c generated by ere2max.py
c max 1 0
c max 2 0
c max 3 0
c max 4 0
c max 5 0
c max 6 0
c max 7 0
c max 8 0
c max 9 0
c max 10 0
c max 11 0
c max 12 0
c max 13 0
c max 14 0
c max 15 0
c max 16 0
c max 17 0
c max 18 0
c max 19 0
c max 20 0
c max 21 0
c max 22 0
c max 23 0
c max 24 0
c max 25 0
c max 26 0
c max 27 0
c max 28 0
c max 29 0
c max 30 0
c max 31 0
c max 32 0
c max 33 0
c max 34 0
c max 35 0
c max 36 0
c max 37 0
c max 38 0
c max 39 0
c max 40 0
c max 41 0
c max 42 0
c max 43 0
c max 44 0
c max 45 0
c max 46 0
c max 47 0
c max 48 0
c max 49 0
c max 50 0
c max 51 0
c max 52 0
c max 53 0
c max 54 0
c max 55 0
c max 56 0
c max 57 0
c max 58 0
c max 59 0
c max 60 0
c ind 452 453 454 0
c ind 455 456 457 0
p cnf 457 1175
64 -9 -21 0
-64 9 0
-64 21 0
65 -25 -39 0
-65 25 0
-65 39 0
66 -43 -65 0
-66 43 0
-66 65 0
67 21 42 0
-67 -21 0
-67 -42 0
68 -21 -42 0
-68 21 0
-68 42 0
69 67 68 0
-69 -67 0
-69 -68 0
70 -45 -69 0
-70 45 0
-70 69 0
71 -16 -70 0
-71 16 0
-71 70 0
72 -66 -71 0
-72 66 0
-72 71 0
73 -25 -57 0
-73 25 0
-73 57 0
74 -43 -73 0
-74 43 0
-74 73 0
75 -21 -74 0
-75 21 0
-75 74 0
76 -45 -50 0
-76 45 0
-76 50 0
77 -42 -76 0
-77 42 0
-77 76 0
78 75 -77 0
-78 -75 0
-78 77 0
79 72 78 0
-79 -72 0
-79 -78 0
80 -1 79 0
-80 1 0
-80 -79 0
81 64 80 0
-81 -64 0
-81 -80 0
82 -40 -50 0
-82 40 0
-82 50 0
83 -51 -82 0
-83 51 0
-83 82 0
84 -21 -66 0
-84 21 0
-84 66 0
85 -83 -84 0
-85 83 0
-85 84 0
86 -38 -85 0
-86 38 0
-86 85 0
87 -16 -45 0
-87 16 0
-87 45 0
88 -66 87 0
-88 66 0
-88 -87 0
89 -44 -88 0
-89 44 0
-89 88 0
90 -13 -89 0
-90 13 0
-90 89 0
91 86 90 0
-91 -86 0
-91 -90 0
92 -81 -91 0
-92 81 0
-92 91 0
93 -32 92 0
-93 32 0
-93 -92 0
94 -10 -73 0
-94 10 0
-94 73 0
95 -44 -94 0
-95 44 0
-95 94 0
96 -42 -45 0
-96 42 0
-96 45 0
97 -46 -96 0
-97 46 0
-97 96 0
98 -47 -97 0
-98 47 0
-98 97 0
99 -95 -98 0
-99 95 0
-99 98 0
100 -48 -99 0
-100 48 0
-100 99 0
101 -19 -100 0
-101 19 0
-101 100 0
102 93 101 0
-102 -93 0
-102 -101 0
103 -28 -60 0
-103 28 0
-103 60 0
104 19 -92 0
-104 -19 0
-104 92 0
105 -19 92 0
-105 19 0
-105 -92 0
106 104 105 0
-106 -104 0
-106 -105 0
107 -9 -14 0
-107 9 0
-107 14 0
108 -2 79 0
-108 2 0
-108 -79 0
109 107 108 0
-109 -107 0
-109 -108 0
110 -15 -89 0
-110 15 0
-110 89 0
111 86 110 0
-111 -86 0
-111 -110 0
112 -109 -111 0
-112 109 0
-112 111 0
113 -20 112 0
-113 20 0
-113 -112 0
114 -66 -83 0
-114 66 0
-114 83 0
115 -44 -114 0
-115 44 0
-115 114 0
116 38 -115 0
-116 -38 0
-116 115 0
117 -21 -88 0
-117 21 0
-117 88 0
118 -25 117 0
-118 25 0
-118 -117 0
119 -11 118 0
-119 11 0
-119 -118 0
120 -3 79 0
-120 3 0
-120 -79 0
121 119 120 0
-121 -119 0
-121 -120 0
122 116 -121 0
-122 -116 0
-122 121 0
123 -22 122 0
-123 22 0
-123 -122 0
124 22 -122 0
-124 -22 0
-124 122 0
125 -15 118 0
-125 15 0
-125 -118 0
126 -6 79 0
-126 6 0
-126 -79 0
127 125 126 0
-127 -125 0
-127 -126 0
128 116 -127 0
-128 -116 0
-128 127 0
129 26 -128 0
-129 -26 0
-129 128 0
130 -12 118 0
-130 12 0
-130 -118 0
131 -4 79 0
-131 4 0
-131 -79 0
132 130 131 0
-132 -130 0
-132 -131 0
133 116 -132 0
-133 -116 0
-133 132 0
134 23 -133 0
-134 -23 0
-134 133 0
135 -13 118 0
-135 13 0
-135 -118 0
136 -5 79 0
-136 5 0
-136 -79 0
137 135 136 0
-137 -135 0
-137 -136 0
138 116 -137 0
-138 -116 0
-138 137 0
139 24 -138 0
-139 -24 0
-139 138 0
140 134 139 0
-140 -134 0
-140 -139 0
141 129 -140 0
-141 -129 0
-141 140 0
142 -36 -141 0
-142 36 0
-142 141 0
143 -26 128 0
-143 26 0
-143 -128 0
144 -140 143 0
-144 140 0
-144 -143 0
145 -23 133 0
-145 23 0
-145 -133 0
146 -24 138 0
-146 24 0
-146 -138 0
147 134 146 0
-147 -134 0
-147 -146 0
148 145 147 0
-148 -145 0
-148 -147 0
149 144 -148 0
-149 -144 0
-149 148 0
150 142 -149 0
-150 -142 0
-150 149 0
151 124 150 0
-151 -124 0
-151 -150 0
152 123 151 0
-152 -123 0
-152 -151 0
153 20 -112 0
-153 -20 0
-153 112 0
154 152 153 0
-154 -152 0
-154 -153 0
155 113 154 0
-155 -113 0
-155 -154 0
156 106 -155 0
-156 -106 0
-156 155 0
157 -106 155 0
-157 106 0
-157 -155 0
158 156 157 0
-158 -156 0
-158 -157 0
159 -29 -158 0
-159 29 0
-159 158 0
160 103 159 0
-160 -103 0
-160 -159 0
161 -30 -106 0
-161 30 0
-161 106 0
162 -31 105 0
-162 31 0
-162 -105 0
163 161 162 0
-163 -161 0
-163 -162 0
164 -160 -163 0
-164 160 0
-164 163 0
165 -102 -164 0
-165 102 0
-165 164 0
166 -61 97 0
-166 61 0
-166 -97 0
167 61 -97 0
-167 -61 0
-167 97 0
168 166 167 0
-168 -166 0
-168 -167 0
169 -47 168 0
-169 47 0
-169 -168 0
170 -95 -169 0
-170 95 0
-170 169 0
171 -48 -170 0
-171 48 0
-171 170 0
172 -19 -171 0
-172 19 0
-172 171 0
173 93 172 0
-173 -93 0
-173 -172 0
174 -62 143 0
-174 62 0
-174 -143 0
175 62 -143 0
-175 -62 0
-175 143 0
176 174 175 0
-176 -174 0
-176 -175 0
177 -140 -176 0
-177 140 0
-177 176 0
178 -148 177 0
-178 148 0
-178 -177 0
179 142 -178 0
-179 -142 0
-179 178 0
180 124 179 0
-180 -124 0
-180 -179 0
181 123 180 0
-181 -123 0
-181 -180 0
182 153 181 0
-182 -153 0
-182 -181 0
183 113 182 0
-183 -113 0
-183 -182 0
184 106 -183 0
-184 -106 0
-184 183 0
185 -106 183 0
-185 106 0
-185 -183 0
186 184 185 0
-186 -184 0
-186 -185 0
187 -29 -186 0
-187 29 0
-187 186 0
188 103 187 0
-188 -103 0
-188 -187 0
189 -163 -188 0
-189 163 0
-189 188 0
190 -173 -189 0
-190 173 0
-190 189 0
191 165 -190 0
-191 -165 0
-191 190 0
192 -165 190 0
-192 165 0
-192 -190 0
193 191 192 0
-193 -191 0
-193 -192 0
194 -9 -43 0
-194 9 0
-194 43 0
195 -60 79 0
-195 60 0
-195 -79 0
196 194 195 0
-196 -194 0
-196 -195 0
197 -12 -89 0
-197 12 0
-197 89 0
198 86 197 0
-198 -86 0
-198 -197 0
199 -196 -198 0
-199 196 0
-199 198 0
200 -32 199 0
-200 32 0
-200 -199 0
201 -18 -100 0
-201 18 0
-201 100 0
202 200 201 0
-202 -200 0
-202 -201 0
203 -28 -59 0
-203 28 0
-203 59 0
204 18 -199 0
-204 -18 0
-204 199 0
205 -18 199 0
-205 18 0
-205 -199 0
206 204 205 0
-206 -204 0
-206 -205 0
207 104 153 0
-207 -104 0
-207 -153 0
208 152 -207 0
-208 -152 0
-208 207 0
209 104 113 0
-209 -104 0
-209 -113 0
210 105 209 0
-210 -105 0
-210 -209 0
211 208 -210 0
-211 -208 0
-211 210 0
212 206 -211 0
-212 -206 0
-212 211 0
213 -206 211 0
-213 206 0
-213 -211 0
214 212 213 0
-214 -212 0
-214 -213 0
215 -29 -214 0
-215 29 0
-215 214 0
216 203 215 0
-216 -203 0
-216 -215 0
217 -30 -206 0
-217 30 0
-217 206 0
218 -31 205 0
-218 31 0
-218 -205 0
219 217 218 0
-219 -217 0
-219 -218 0
220 -216 -219 0
-220 216 0
-220 219 0
221 -202 -220 0
-221 202 0
-221 220 0
222 -18 -171 0
-222 18 0
-222 171 0
223 200 222 0
-223 -200 0
-223 -222 0
224 181 -207 0
-224 -181 0
-224 207 0
225 -210 224 0
-225 210 0
-225 -224 0
226 206 -225 0
-226 -206 0
-226 225 0
227 -206 225 0
-227 206 0
-227 -225 0
228 226 227 0
-228 -226 0
-228 -227 0
229 -29 -228 0
-229 29 0
-229 228 0
230 203 229 0
-230 -203 0
-230 -229 0
231 -219 -230 0
-231 219 0
-231 230 0
232 -223 -231 0
-232 223 0
-232 231 0
233 221 -232 0
-233 -221 0
-233 232 0
234 -221 232 0
-234 221 0
-234 -232 0
235 233 234 0
-235 -233 0
-235 -234 0
236 -9 -57 0
-236 9 0
-236 57 0
237 -59 79 0
-237 59 0
-237 -79 0
238 236 237 0
-238 -236 0
-238 -237 0
239 -11 -89 0
-239 11 0
-239 89 0
240 86 239 0
-240 -86 0
-240 -239 0
241 -238 -240 0
-241 238 0
-241 240 0
242 -32 241 0
-242 32 0
-242 -241 0
243 -17 -100 0
-243 17 0
-243 100 0
244 242 243 0
-244 -242 0
-244 -243 0
245 -28 -38 0
-245 28 0
-245 38 0
246 104 204 0
-246 -104 0
-246 -204 0
247 153 -246 0
-247 -153 0
-247 246 0
248 152 -247 0
-248 -152 0
-248 247 0
249 113 -246 0
-249 -113 0
-249 246 0
250 105 204 0
-250 -105 0
-250 -204 0
251 205 250 0
-251 -205 0
-251 -250 0
252 249 -251 0
-252 -249 0
-252 251 0
253 248 -252 0
-253 -248 0
-253 252 0
254 -17 241 0
-254 17 0
-254 -241 0
255 17 -241 0
-255 -17 0
-255 241 0
256 254 255 0
-256 -254 0
-256 -255 0
257 -253 256 0
-257 253 0
-257 -256 0
258 253 -256 0
-258 -253 0
-258 256 0
259 257 258 0
-259 -257 0
-259 -258 0
260 -29 -259 0
-260 29 0
-260 259 0
261 245 260 0
-261 -245 0
-261 -260 0
262 -30 -256 0
-262 30 0
-262 256 0
263 -31 254 0
-263 31 0
-263 -254 0
264 262 263 0
-264 -262 0
-264 -263 0
265 -261 -264 0
-265 261 0
-265 264 0
266 -244 -265 0
-266 244 0
-266 265 0
267 -17 -171 0
-267 17 0
-267 171 0
268 242 267 0
-268 -242 0
-268 -267 0
269 181 -247 0
-269 -181 0
-269 247 0
270 -252 269 0
-270 252 0
-270 -269 0
271 256 -270 0
-271 -256 0
-271 270 0
272 -256 270 0
-272 256 0
-272 -270 0
273 271 272 0
-273 -271 0
-273 -272 0
274 -29 -273 0
-274 29 0
-274 273 0
275 245 274 0
-275 -245 0
-275 -274 0
276 -264 -275 0
-276 264 0
-276 275 0
277 -268 -276 0
-277 268 0
-277 276 0
278 266 -277 0
-278 -266 0
-278 277 0
279 -266 277 0
-279 266 0
-279 -277 0
280 278 279 0
-280 -278 0
-280 -279 0
281 -32 112 0
-281 32 0
-281 -112 0
282 -20 -100 0
-282 20 0
-282 100 0
283 281 282 0
-283 -281 0
-283 -282 0
284 -1 -28 0
-284 1 0
-284 28 0
285 113 153 0
-285 -113 0
-285 -153 0
286 -152 285 0
-286 152 0
-286 -285 0
287 152 -285 0
-287 -152 0
-287 285 0
288 286 287 0
-288 -286 0
-288 -287 0
289 -29 -288 0
-289 29 0
-289 288 0
290 284 289 0
-290 -284 0
-290 -289 0
291 -30 -285 0
-291 30 0
-291 285 0
292 -31 113 0
-292 31 0
-292 -113 0
293 291 292 0
-293 -291 0
-293 -292 0
294 -290 -293 0
-294 290 0
-294 293 0
295 -283 -294 0
-295 283 0
-295 294 0
296 -20 -171 0
-296 20 0
-296 171 0
297 281 296 0
-297 -281 0
-297 -296 0
298 -181 285 0
-298 181 0
-298 -285 0
299 181 -285 0
-299 -181 0
-299 285 0
300 298 299 0
-300 -298 0
-300 -299 0
301 -29 -300 0
-301 29 0
-301 300 0
302 284 301 0
-302 -284 0
-302 -301 0
303 -293 -302 0
-303 293 0
-303 302 0
304 -297 -303 0
-304 297 0
-304 303 0
305 295 -304 0
-305 -295 0
-305 304 0
306 -295 304 0
-306 295 0
-306 -304 0
307 305 306 0
-307 -305 0
-307 -306 0
308 253 255 0
-308 -253 0
-308 -255 0
309 254 308 0
-309 -254 0
-309 -308 0
310 255 270 0
-310 -255 0
-310 -270 0
311 254 310 0
-311 -254 0
-311 -310 0
312 -309 311 0
-312 309 0
-312 -311 0
313 309 -311 0
-313 -309 0
-313 311 0
314 312 313 0
-314 -312 0
-314 -313 0
315 -24 -100 0
-315 24 0
-315 100 0
316 -33 -35 0
-316 33 0
-316 35 0
317 -32 138 0
-317 32 0
-317 -138 0
318 316 317 0
-318 -316 0
-318 -317 0
319 -4 -28 0
-319 4 0
-319 28 0
320 139 146 0
-320 -139 0
-320 -146 0
321 -36 129 0
-321 36 0
-321 -129 0
322 143 321 0
-322 -143 0
-322 -321 0
323 320 -322 0
-323 -320 0
-323 322 0
324 -320 322 0
-324 320 0
-324 -322 0
325 323 324 0
-325 -323 0
-325 -324 0
326 -29 -325 0
-326 29 0
-326 325 0
327 319 326 0
-327 -319 0
-327 -326 0
328 -30 -320 0
-328 30 0
-328 320 0
329 -31 146 0
-329 31 0
-329 -146 0
330 328 329 0
-330 -328 0
-330 -329 0
331 -327 -330 0
-331 327 0
-331 330 0
332 -318 -331 0
-332 318 0
-332 331 0
333 315 -332 0
-333 -315 0
-333 332 0
334 -24 -171 0
-334 24 0
-334 171 0
335 -176 321 0
-335 176 0
-335 -321 0
336 320 -335 0
-336 -320 0
-336 335 0
337 -320 335 0
-337 320 0
-337 -335 0
338 336 337 0
-338 -336 0
-338 -337 0
339 -29 -338 0
-339 29 0
-339 338 0
340 319 339 0
-340 -319 0
-340 -339 0
341 -330 -340 0
-341 330 0
-341 340 0
342 -318 -341 0
-342 318 0
-342 341 0
343 334 -342 0
-343 -334 0
-343 342 0
344 333 -343 0
-344 -333 0
-344 343 0
345 -333 343 0
-345 333 0
-345 -343 0
346 344 345 0
-346 -344 0
-346 -345 0
347 -23 -100 0
-347 23 0
-347 100 0
348 -33 -34 0
-348 33 0
-348 34 0
349 -32 133 0
-349 32 0
-349 -133 0
350 348 349 0
-350 -348 0
-350 -349 0
351 -3 -28 0
-351 3 0
-351 28 0
352 134 145 0
-352 -134 0
-352 -145 0
353 129 139 0
-353 -129 0
-353 -139 0
354 -36 -353 0
-354 36 0
-354 353 0
355 139 143 0
-355 -139 0
-355 -143 0
356 146 355 0
-356 -146 0
-356 -355 0
357 354 -356 0
-357 -354 0
-357 356 0
358 352 -357 0
-358 -352 0
-358 357 0
359 -352 357 0
-359 352 0
-359 -357 0
360 358 359 0
-360 -358 0
-360 -359 0
361 -29 -360 0
-361 29 0
-361 360 0
362 351 361 0
-362 -351 0
-362 -361 0
363 -30 -352 0
-363 30 0
-363 352 0
364 -31 145 0
-364 31 0
-364 -145 0
365 363 364 0
-365 -363 0
-365 -364 0
366 -362 -365 0
-366 362 0
-366 365 0
367 -350 -366 0
-367 350 0
-367 366 0
368 347 -367 0
-368 -347 0
-368 367 0
369 -23 -171 0
-369 23 0
-369 171 0
370 139 -176 0
-370 -139 0
-370 176 0
371 146 370 0
-371 -146 0
-371 -370 0
372 354 -371 0
-372 -354 0
-372 371 0
373 352 -372 0
-373 -352 0
-373 372 0
374 -352 372 0
-374 352 0
-374 -372 0
375 373 374 0
-375 -373 0
-375 -374 0
376 -29 -375 0
-376 29 0
-376 375 0
377 351 376 0
-377 -351 0
-377 -376 0
378 -365 -377 0
-378 365 0
-378 377 0
379 -350 -378 0
-379 350 0
-379 378 0
380 369 -379 0
-380 -369 0
-380 379 0
381 368 -380 0
-381 -368 0
-381 380 0
382 -368 380 0
-382 368 0
-382 -380 0
383 381 382 0
-383 -381 0
-383 -382 0
384 -26 -100 0
-384 26 0
-384 100 0
385 -33 -37 0
-385 33 0
-385 37 0
386 -32 128 0
-386 32 0
-386 -128 0
387 385 386 0
-387 -385 0
-387 -386 0
388 -5 -28 0
-388 5 0
-388 28 0
389 129 143 0
-389 -129 0
-389 -143 0
390 36 389 0
-390 -36 0
-390 -389 0
391 -36 -389 0
-391 36 0
-391 389 0
392 390 391 0
-392 -390 0
-392 -391 0
393 -29 -392 0
-393 29 0
-393 392 0
394 388 393 0
-394 -388 0
-394 -393 0
395 -30 -389 0
-395 30 0
-395 389 0
396 -31 143 0
-396 31 0
-396 -143 0
397 395 396 0
-397 -395 0
-397 -396 0
398 -394 -397 0
-398 394 0
-398 397 0
399 -387 -398 0
-399 387 0
-399 398 0
400 384 -399 0
-400 -384 0
-400 399 0
401 -26 -171 0
-401 26 0
-401 171 0
402 129 -176 0
-402 -129 0
-402 176 0
403 36 402 0
-403 -36 0
-403 -402 0
404 -36 -402 0
-404 36 0
-404 402 0
405 403 404 0
-405 -403 0
-405 -404 0
406 -29 -405 0
-406 29 0
-406 405 0
407 388 406 0
-407 -388 0
-407 -406 0
408 -30 -402 0
-408 30 0
-408 402 0
409 -31 -176 0
-409 31 0
-409 176 0
410 408 409 0
-410 -408 0
-410 -409 0
411 -407 -410 0
-411 407 0
-411 410 0
412 -387 -411 0
-412 387 0
-412 411 0
413 401 -412 0
-413 -401 0
-413 412 0
414 400 -413 0
-414 -400 0
-414 413 0
415 -400 413 0
-415 400 0
-415 -413 0
416 414 415 0
-416 -414 0
-416 -415 0
417 -32 122 0
-417 32 0
-417 -122 0
418 -22 -100 0
-418 22 0
-418 100 0
419 417 418 0
-419 -417 0
-419 -418 0
420 -2 -28 0
-420 2 0
-420 28 0
421 123 124 0
-421 -123 0
-421 -124 0
422 -150 421 0
-422 150 0
-422 -421 0
423 150 -421 0
-423 -150 0
-423 421 0
424 422 423 0
-424 -422 0
-424 -423 0
425 -29 -424 0
-425 29 0
-425 424 0
426 420 425 0
-426 -420 0
-426 -425 0
427 -30 -421 0
-427 30 0
-427 421 0
428 -31 123 0
-428 31 0
-428 -123 0
429 427 428 0
-429 -427 0
-429 -428 0
430 -426 -429 0
-430 426 0
-430 429 0
431 -419 -430 0
-431 419 0
-431 430 0
432 -22 -171 0
-432 22 0
-432 171 0
433 417 432 0
-433 -417 0
-433 -432 0
434 -179 421 0
-434 179 0
-434 -421 0
435 179 -421 0
-435 -179 0
-435 421 0
436 434 435 0
-436 -434 0
-436 -435 0
437 -29 -436 0
-437 29 0
-437 436 0
438 420 437 0
-438 -420 0
-438 -437 0
439 -429 -438 0
-439 429 0
-439 438 0
440 -433 -439 0
-440 433 0
-440 439 0
441 431 -440 0
-441 -431 0
-441 440 0
442 -431 440 0
-442 431 0
-442 -440 0
443 441 442 0
-443 -441 0
-443 -442 0
444 -416 -443 0
-444 416 0
-444 443 0
445 -383 -444 0
-445 383 0
-445 444 0
446 -346 -445 0
-446 346 0
-446 445 0
447 -314 -446 0
-447 314 0
-447 446 0
448 -307 -447 0
-448 307 0
-448 447 0
449 -280 -448 0
-449 280 0
-449 448 0
450 -235 -449 0
-450 235 0
-450 449 0
451 -193 -450 0
-451 193 0
-451 450 0
63 451 0
-63 -451 0
63 0
-452 -453 -454 61 0
452 -61 0
453 -61 0
454 -61 0
-455 -456 -457 62 0
455 -62 0
456 -62 0
457 -62 0
